NAME : XML100_1245_01
DIMENSION : 101
NB_CLUSTERS : 4
CLUSTERING_ALG : KMeans
CLUSTERING_PARAMS : k(3)
CLUSTERS
1 0
2 3 5 9 10 11 12 16 22 25 26 27 31 33 34 37 42 44 45 47 50 51 55 57 58 62 64 65 67 69 70 71 73 76 77 78 79 82 84 87 93 95
3 4 6 8 13 17 18 24 29 35 40 41 49 53 54 61 63 68 85 86 88 90 92 94 96 97 100
4 1 2 7 14 15 19 20 21 23 28 30 32 36 38 39 43 46 48 52 56 59 60 66 72 74 75 80 81 83 89 91 98 99
EOF